n=8;
hearts=56;
clubs=50;
spades=54;
diamonds=11;
blocked=11;
m=array2d(1..n, 1..n,[
	_,_,4,5,_,_,_,_,
	_,_,_,_,_,_,_,_,
	5,_,_,5,_,_,_,5,
	_,1,_,_,3,1,5,5,
	_,_,5,2,_,_,_,_,
	5,1,_,5,_,4,5,_,
	_,_,_,5,_,_,_,_,
	_,2,_,_,_,2,_,_
]);
